p edge 64 704
n 1 2
n 2 3
n 3 4
n 4 5
n 5 6
n 6 7
n 7 8
n 8 9
n 9 10
n 10 11
n 11 12
n 12 13
n 13 14
n 14 15
n 15 16
n 16 17
n 17 18
n 18 19
n 19 20
n 20 21
n 21 22
n 22 23
n 23 24
n 24 25
n 25 26
n 26 27
n 27 28
n 28 29
n 29 30
n 30 31
n 31 32
n 32 33
n 33 34
n 34 35
n 35 36
n 36 37
n 37 38
n 38 39
n 39 40
n 40 41
n 41 42
n 42 43
n 43 44
n 44 45
n 45 46
n 46 47
n 47 48
n 48 49
n 49 50
n 50 51
n 51 52
n 52 53
n 53 54
n 54 55
n 55 56
n 56 57
n 57 58
n 58 59
n 59 60
n 60 61
n 61 62
n 62 63
n 63 64
n 64 65
e 1 16
e 1 24
e 1 28
e 1 30
e 1 31
e 1 32
e 1 40
e 1 44
e 1 46
e 1 47
e 1 48
e 1 52
e 1 54
e 1 55
e 1 56
e 1 58
e 1 59
e 1 60
e 1 61
e 1 62
e 1 63
e 1 64
e 2 15
e 2 23
e 2 27
e 2 29
e 2 31
e 2 32
e 2 39
e 2 43
e 2 45
e 2 47
e 2 48
e 2 51
e 2 53
e 2 55
e 2 56
e 2 57
e 2 59
e 2 60
e 2 61
e 2 62
e 2 63
e 2 64
e 3 14
e 3 22
e 3 26
e 3 29
e 3 30
e 3 32
e 3 38
e 3 42
e 3 45
e 3 46
e 3 48
e 3 50
e 3 53
e 3 54
e 3 56
e 3 57
e 3 58
e 3 60
e 3 61
e 3 62
e 3 63
e 3 64
e 4 13
e 4 21
e 4 25
e 4 29
e 4 30
e 4 31
e 4 37
e 4 41
e 4 45
e 4 46
e 4 47
e 4 49
e 4 53
e 4 54
e 4 55
e 4 57
e 4 58
e 4 59
e 4 61
e 4 62
e 4 63
e 4 64
e 5 12
e 5 20
e 5 26
e 5 27
e 5 28
e 5 32
e 5 36
e 5 42
e 5 43
e 5 44
e 5 48
e 5 50
e 5 51
e 5 52
e 5 56
e 5 57
e 5 58
e 5 59
e 5 60
e 5 62
e 5 63
e 5 64
e 6 11
e 6 19
e 6 25
e 6 27
e 6 28
e 6 31
e 6 35
e 6 41
e 6 43
e 6 44
e 6 47
e 6 49
e 6 51
e 6 52
e 6 55
e 6 57
e 6 58
e 6 59
e 6 60
e 6 61
e 6 63
e 6 64
e 7 10
e 7 18
e 7 25
e 7 26
e 7 28
e 7 30
e 7 34
e 7 41
e 7 42
e 7 44
e 7 46
e 7 49
e 7 50
e 7 52
e 7 54
e 7 57
e 7 58
e 7 59
e 7 60
e 7 61
e 7 62
e 7 64
e 8 9
e 8 17
e 8 25
e 8 26
e 8 27
e 8 29
e 8 33
e 8 41
e 8 42
e 8 43
e 8 45
e 8 49
e 8 50
e 8 51
e 8 53
e 8 57
e 8 58
e 8 59
e 8 60
e 8 61
e 8 62
e 8 63
e 9 20
e 9 22
e 9 23
e 9 24
e 9 32
e 9 36
e 9 38
e 9 39
e 9 40
e 9 48
e 9 50
e 9 51
e 9 52
e 9 53
e 9 54
e 9 55
e 9 56
e 9 60
e 9 62
e 9 63
e 9 64
e 10 19
e 10 21
e 10 23
e 10 24
e 10 31
e 10 35
e 10 37
e 10 39
e 10 40
e 10 47
e 10 49
e 10 51
e 10 52
e 10 53
e 10 54
e 10 55
e 10 56
e 10 59
e 10 61
e 10 63
e 10 64
e 11 18
e 11 21
e 11 22
e 11 24
e 11 30
e 11 34
e 11 37
e 11 38
e 11 40
e 11 46
e 11 49
e 11 50
e 11 52
e 11 53
e 11 54
e 11 55
e 11 56
e 11 58
e 11 61
e 11 62
e 11 64
e 12 17
e 12 21
e 12 22
e 12 23
e 12 29
e 12 33
e 12 37
e 12 38
e 12 39
e 12 45
e 12 49
e 12 50
e 12 51
e 12 53
e 12 54
e 12 55
e 12 56
e 12 57
e 12 61
e 12 62
e 12 63
e 13 18
e 13 19
e 13 20
e 13 24
e 13 28
e 13 34
e 13 35
e 13 36
e 13 40
e 13 44
e 13 49
e 13 50
e 13 51
e 13 52
e 13 54
e 13 55
e 13 56
e 13 58
e 13 59
e 13 60
e 13 64
e 14 17
e 14 19
e 14 20
e 14 23
e 14 27
e 14 33
e 14 35
e 14 36
e 14 39
e 14 43
e 14 49
e 14 50
e 14 51
e 14 52
e 14 53
e 14 55
e 14 56
e 14 57
e 14 59
e 14 60
e 14 63
e 15 17
e 15 18
e 15 20
e 15 22
e 15 26
e 15 33
e 15 34
e 15 36
e 15 38
e 15 42
e 15 49
e 15 50
e 15 51
e 15 52
e 15 53
e 15 54
e 15 56
e 15 57
e 15 58
e 15 60
e 15 62
e 16 17
e 16 18
e 16 19
e 16 21
e 16 25
e 16 33
e 16 34
e 16 35
e 16 37
e 16 41
e 16 49
e 16 50
e 16 51
e 16 52
e 16 53
e 16 54
e 16 55
e 16 57
e 16 58
e 16 59
e 16 61
e 17 32
e 17 36
e 17 38
e 17 39
e 17 40
e 17 42
e 17 43
e 17 44
e 17 45
e 17 46
e 17 47
e 17 48
e 17 56
e 17 60
e 17 62
e 17 63
e 17 64
e 18 31
e 18 35
e 18 37
e 18 39
e 18 40
e 18 41
e 18 43
e 18 44
e 18 45
e 18 46
e 18 47
e 18 48
e 18 55
e 18 59
e 18 61
e 18 63
e 18 64
e 19 30
e 19 34
e 19 37
e 19 38
e 19 40
e 19 41
e 19 42
e 19 44
e 19 45
e 19 46
e 19 47
e 19 48
e 19 54
e 19 58
e 19 61
e 19 62
e 19 64
e 20 29
e 20 33
e 20 37
e 20 38
e 20 39
e 20 41
e 20 42
e 20 43
e 20 45
e 20 46
e 20 47
e 20 48
e 20 53
e 20 57
e 20 61
e 20 62
e 20 63
e 21 28
e 21 34
e 21 35
e 21 36
e 21 40
e 21 41
e 21 42
e 21 43
e 21 44
e 21 46
e 21 47
e 21 48
e 21 52
e 21 58
e 21 59
e 21 60
e 21 64
e 22 27
e 22 33
e 22 35
e 22 36
e 22 39
e 22 41
e 22 42
e 22 43
e 22 44
e 22 45
e 22 47
e 22 48
e 22 51
e 22 57
e 22 59
e 22 60
e 22 63
e 23 26
e 23 33
e 23 34
e 23 36
e 23 38
e 23 41
e 23 42
e 23 43
e 23 44
e 23 45
e 23 46
e 23 48
e 23 50
e 23 57
e 23 58
e 23 60
e 23 62
e 24 25
e 24 33
e 24 34
e 24 35
e 24 37
e 24 41
e 24 42
e 24 43
e 24 44
e 24 45
e 24 46
e 24 47
e 24 49
e 24 57
e 24 58
e 24 59
e 24 61
e 25 34
e 25 35
e 25 36
e 25 37
e 25 38
e 25 39
e 25 40
e 25 44
e 25 46
e 25 47
e 25 48
e 25 52
e 25 54
e 25 55
e 25 56
e 25 64
e 26 33
e 26 35
e 26 36
e 26 37
e 26 38
e 26 39
e 26 40
e 26 43
e 26 45
e 26 47
e 26 48
e 26 51
e 26 53
e 26 55
e 26 56
e 26 63
e 27 33
e 27 34
e 27 36
e 27 37
e 27 38
e 27 39
e 27 40
e 27 42
e 27 45
e 27 46
e 27 48
e 27 50
e 27 53
e 27 54
e 27 56
e 27 62
e 28 33
e 28 34
e 28 35
e 28 37
e 28 38
e 28 39
e 28 40
e 28 41
e 28 45
e 28 46
e 28 47
e 28 49
e 28 53
e 28 54
e 28 55
e 28 61
e 29 33
e 29 34
e 29 35
e 29 36
e 29 38
e 29 39
e 29 40
e 29 42
e 29 43
e 29 44
e 29 48
e 29 50
e 29 51
e 29 52
e 29 56
e 29 60
e 30 33
e 30 34
e 30 35
e 30 36
e 30 37
e 30 39
e 30 40
e 30 41
e 30 43
e 30 44
e 30 47
e 30 49
e 30 51
e 30 52
e 30 55
e 30 59
e 31 33
e 31 34
e 31 35
e 31 36
e 31 37
e 31 38
e 31 40
e 31 41
e 31 42
e 31 44
e 31 46
e 31 49
e 31 50
e 31 52
e 31 54
e 31 58
e 32 33
e 32 34
e 32 35
e 32 36
e 32 37
e 32 38
e 32 39
e 32 41
e 32 42
e 32 43
e 32 45
e 32 49
e 32 50
e 32 51
e 32 53
e 32 57
e 33 48
e 33 56
e 33 60
e 33 62
e 33 63
e 33 64
e 34 47
e 34 55
e 34 59
e 34 61
e 34 63
e 34 64
e 35 46
e 35 54
e 35 58
e 35 61
e 35 62
e 35 64
e 36 45
e 36 53
e 36 57
e 36 61
e 36 62
e 36 63
e 37 44
e 37 52
e 37 58
e 37 59
e 37 60
e 37 64
e 38 43
e 38 51
e 38 57
e 38 59
e 38 60
e 38 63
e 39 42
e 39 50
e 39 57
e 39 58
e 39 60
e 39 62
e 40 41
e 40 49
e 40 57
e 40 58
e 40 59
e 40 61
e 41 52
e 41 54
e 41 55
e 41 56
e 41 64
e 42 51
e 42 53
e 42 55
e 42 56
e 42 63
e 43 50
e 43 53
e 43 54
e 43 56
e 43 62
e 44 49
e 44 53
e 44 54
e 44 55
e 44 61
e 45 50
e 45 51
e 45 52
e 45 56
e 45 60
e 46 49
e 46 51
e 46 52
e 46 55
e 46 59
e 47 49
e 47 50
e 47 52
e 47 54
e 47 58
e 48 49
e 48 50
e 48 51
e 48 53
e 48 57
e 49 64
e 50 63
e 51 62
e 52 61
e 53 60
e 54 59
e 55 58
e 56 57
